% Logging successfully configured
%%%mzn-stat: initTime=0.003998408
%%%mzn-stat: objective=446
%%%mzn-stat: nodes=223
%%%mzn-stat: restarts=0
%%%mzn-stat: peakDepth=72
%%%mzn-stat: solveTime=0.001864624
%%%mzn-stat: variables=196
%%%mzn-stat: propagators=120
%%%mzn-stat: failures=48
%%%mzn-stat: propagations=1869
%%%mzn-stat: nogoods=48
%%%mzn-stat: numAtomicConstraintsPropagated=0
%%%mzn-stat: allDifferentNumber1TotalHallSetSize=223
%%%mzn-stat: allDifferentNumber1NumberOfConflicts=47
%%%mzn-stat: allDifferentNumber1MaxHallSetSize=19
%%%mzn-stat: allDifferentNumber1PropagationsTotal=326
%%%mzn-stat: allDifferentNumber1PropagationsThatFoundConflict=47
%%%mzn-stat: circuitNumber2PropagationsThatFoundConflict=0
%%%mzn-stat: circuitNumber2TotalFixedEdgesAtConflict=0
%%%mzn-stat: circuitNumber2NumberOfConflicts=0
%%%mzn-stat: circuitNumber2PropagationsThatPruned=22
%%%mzn-stat: circuitNumber2PropagationsTotal=180
%%%mzn-stat: AverageConflictSize=3.7291666666666665
%%%mzn-stat: NumUnitNogoodsLearned=0
%%%mzn-stat: AverageLearnedNogoodLength=3.75
%%%mzn-stat: AverageBacktrackAmount=0
%%%mzn-stat: AverageLbd=3.5833333333333335
%%%mzn-stat: 2AutonomousSearchNumBackupCalled=58
%%%mzn-stat: 2AutonomousSearchNumPredicatesRemoved=0
%%%mzn-stat: 2AutonomousSearchNumCalls=59
%%%mzn-stat: 2AutonomousSearchNumPredicatesAdded=186
%%%mzn-stat: 2AutonomousSearchAverageSizeOfHeap=3.152542372881356
%%%mzn-stat: 2AutonomousSearchNumAssignedPredicatesEncountered=186
%%%mzn-stat-end
maxleg = 446;
succ = array1d(1..20,[8, 4, 7, 10, 14, 19, 9, 15, 16, 6, 1, 20, 3, 2, 18, 11, 12, 17, 13, 5]);
% time elapsed: 1.18 s
----------
%%%mzn-stat: initTime=0.003998408
%%%mzn-stat: objective=425
%%%mzn-stat: nodes=384
%%%mzn-stat: restarts=0
%%%mzn-stat: peakDepth=72
%%%mzn-stat: solveTime=0.003434473
%%%mzn-stat: variables=196
%%%mzn-stat: propagators=120
%%%mzn-stat: failures=92
%%%mzn-stat: propagations=3243
%%%mzn-stat: nogoods=92
%%%mzn-stat: numAtomicConstraintsPropagated=0
%%%mzn-stat: allDifferentNumber1TotalHallSetSize=389
%%%mzn-stat: allDifferentNumber1NumberOfConflicts=88
%%%mzn-stat: allDifferentNumber1MaxHallSetSize=19
%%%mzn-stat: allDifferentNumber1PropagationsTotal=541
%%%mzn-stat: allDifferentNumber1PropagationsThatFoundConflict=88
%%%mzn-stat: circuitNumber2PropagationsThatFoundConflict=0
%%%mzn-stat: circuitNumber2TotalFixedEdgesAtConflict=0
%%%mzn-stat: circuitNumber2NumberOfConflicts=0
%%%mzn-stat: circuitNumber2PropagationsThatPruned=42
%%%mzn-stat: circuitNumber2PropagationsTotal=295
%%%mzn-stat: AverageConflictSize=3.880434782608696
%%%mzn-stat: NumUnitNogoodsLearned=0
%%%mzn-stat: AverageLearnedNogoodLength=4.3478260869565215
%%%mzn-stat: AverageBacktrackAmount=0
%%%mzn-stat: AverageLbd=3.7282608695652173
%%%mzn-stat: 2AutonomousSearchNumBackupCalled=115
%%%mzn-stat: 2AutonomousSearchNumPredicatesRemoved=0
%%%mzn-stat: 2AutonomousSearchNumCalls=117
%%%mzn-stat: 2AutonomousSearchNumPredicatesAdded=426
%%%mzn-stat: 2AutonomousSearchAverageSizeOfHeap=4.333333333333333
%%%mzn-stat: 2AutonomousSearchNumAssignedPredicatesEncountered=507
%%%mzn-stat-end
maxleg = 425;
succ = array1d(1..20,[8, 10, 7, 2, 6, 19, 9, 15, 16, 14, 1, 20, 3, 5, 18, 11, 12, 17, 13, 4]);
% time elapsed: 1.18 s
----------
==========
% time elapsed: 1.18 s
%%%mzn-stat: initTime=0.003998408
%%%mzn-stat: objective=425
%%%mzn-stat: nodes=529
%%%mzn-stat: restarts=0
%%%mzn-stat: peakDepth=72
%%%mzn-stat: solveTime=0.008004833
%%%mzn-stat: variables=196
%%%mzn-stat: propagators=120
%%%mzn-stat: failures=213
%%%mzn-stat: propagations=6275
%%%mzn-stat: nogoods=213
%%%mzn-stat: numAtomicConstraintsPropagated=0
%%%mzn-stat: allDifferentNumber1TotalHallSetSize=961
%%%mzn-stat: allDifferentNumber1NumberOfConflicts=174
%%%mzn-stat: allDifferentNumber1MaxHallSetSize=19
%%%mzn-stat: allDifferentNumber1PropagationsTotal=1001
%%%mzn-stat: allDifferentNumber1PropagationsThatFoundConflict=174
%%%mzn-stat: circuitNumber2PropagationsThatFoundConflict=30
%%%mzn-stat: circuitNumber2TotalFixedEdgesAtConflict=251
%%%mzn-stat: circuitNumber2NumberOfConflicts=30
%%%mzn-stat: circuitNumber2PropagationsThatPruned=163
%%%mzn-stat: circuitNumber2PropagationsTotal=551
%%%mzn-stat: AverageConflictSize=5.178403755868545
%%%mzn-stat: NumUnitNogoodsLearned=1
%%%mzn-stat: AverageLearnedNogoodLength=6.586854460093897
%%%mzn-stat: AverageBacktrackAmount=0
%%%mzn-stat: AverageLbd=3.676056338028169
%%%mzn-stat: 2AutonomousSearchNumBackupCalled=115
%%%mzn-stat: 2AutonomousSearchNumPredicatesRemoved=0
%%%mzn-stat: 2AutonomousSearchNumCalls=117
%%%mzn-stat: 2AutonomousSearchNumPredicatesAdded=779
%%%mzn-stat: 2AutonomousSearchAverageSizeOfHeap=4.333333333333333
%%%mzn-stat: 2AutonomousSearchNumAssignedPredicatesEncountered=507
%%%mzn-stat-end
